unsat
(define-fun inv ((s (_ BitVec 4)) (t (_ BitVec 4))) (_ BitVec 4) (bvudiv s (bvadd t #b0001)))
20.69user 0.04system 0:20.74elapsed 99%CPU (0avgtext+0avgdata 68720maxresident)k
0inputs+8outputs (0major+11830minor)pagefaults 0swaps
unsat
(define-fun inv ((s (_ BitVec 4)) (t (_ BitVec 4))) (_ BitVec 4) (bvudiv s (bvadd t #b0001)))
20.83user 0.02system 0:20.85elapsed 99%CPU (0avgtext+0avgdata 68760maxresident)k
0inputs+0outputs (0major+11832minor)pagefaults 0swaps
